exemplo_pequeno.LP
\* Probes_Placement_Model *\
Maximize
Total_Cost: 560 SDMC_0_1_0_0 + 400 SDMC_0_2_0_0 + 80 SDMC_0_3_0_0
 + 320 SDMC_0_4_0_0 + 160 SDMC_0_5_0_0 + 80 SDMC_0_6_0_0 + 80 SDMC_0_7_0_0
 + 1120 SDMC_1_2_0_0 + 240 SDMC_1_3_0_0 + 960 SDMC_1_4_0_0 + 480 SDMC_1_5_0_0
 + 240 SDMC_1_6_0_0 + 240 SDMC_1_7_0_0 + 80 SDMC_2_3_0_0 + 1280 SDMC_2_4_0_0
 + 640 SDMC_2_5_0_0 + 320 SDMC_2_6_0_0 + 320 SDMC_2_7_0_0 + 320 SDMC_3_4_0_0
 + 160 SDMC_3_5_0_0 + 80 SDMC_3_6_0_0 + 80 SDMC_3_7_0_0 + 800 SDMC_4_5_0_0
 + 400 SDMC_4_6_0_0 + 560 SDMC_4_7_0_0 + 480 SDMC_5_6_0_0 + 160 SDMC_5_7_0_0
 + 80 SDMC_6_7_0_0
Subject To
Igual_Probes_'10',_'11',_'18',_'19',_'20'__0_6_8_1: SDMC_0_6_8_1
 - SDMC_1_6_0_0 = 0
Igual_Probes_'10',_'11',_'18',_'19',_'20'__3_6_8_1: - SDMC_1_6_0_0
 + SDMC_3_6_8_1 = 0
Igual_Probes_'10',_'11',_'18',_'19'__0_5_4_1: SDMC_0_5_4_1 - SDMC_1_5_0_0 = 0
Igual_Probes_'10',_'11',_'18',_'19'__0_6_7_1: SDMC_0_6_7_1 - SDMC_1_5_0_0 = 0
Igual_Probes_'10',_'11',_'18',_'19'__3_5_4_1: - SDMC_1_5_0_0 + SDMC_3_5_4_1
 = 0
Igual_Probes_'10',_'11',_'18',_'19'__3_6_7_1: - SDMC_1_5_0_0 + SDMC_3_6_7_1
 = 0
Igual_Probes_'10',_'11',_'18',_'21'__0_7_4_1: SDMC_0_7_4_1 - SDMC_1_7_0_0 = 0
Igual_Probes_'10',_'11',_'18',_'21'__3_7_4_1: - SDMC_1_7_0_0 + SDMC_3_7_4_1
 = 0
Igual_Probes_'10',_'11',_'18'__0_4_2_1: SDMC_0_4_2_1 - SDMC_1_4_0_0 = 0
Igual_Probes_'10',_'11',_'18'__0_5_3_1: SDMC_0_5_3_1 - SDMC_1_4_0_0 = 0
Igual_Probes_'10',_'11',_'18'__0_6_5_1: SDMC_0_6_5_1 - SDMC_1_4_0_0 = 0
Igual_Probes_'10',_'11',_'18'__0_6_6_1: SDMC_0_6_6_1 - SDMC_1_4_0_0 = 0
Igual_Probes_'10',_'11',_'18'__0_7_3_1: SDMC_0_7_3_1 - SDMC_1_4_0_0 = 0
Igual_Probes_'10',_'11',_'18'__3_4_2_1: - SDMC_1_4_0_0 + SDMC_3_4_2_1 = 0
Igual_Probes_'10',_'11',_'18'__3_5_3_1: - SDMC_1_4_0_0 + SDMC_3_5_3_1 = 0
Igual_Probes_'10',_'11',_'18'__3_6_5_1: - SDMC_1_4_0_0 + SDMC_3_6_5_1 = 0
Igual_Probes_'10',_'11',_'18'__3_6_6_1: - SDMC_1_4_0_0 + SDMC_3_6_6_1 = 0
Igual_Probes_'10',_'11',_'18'__3_7_3_1: - SDMC_1_4_0_0 + SDMC_3_7_3_1 = 0
Igual_Probes_'10',_'11'__0_2_1_1: SDMC_0_2_1_1 - SDMC_1_2_0_0 = 0
Igual_Probes_'10',_'11'__0_4_1_1: SDMC_0_4_1_1 - SDMC_1_2_0_0 = 0
Igual_Probes_'10',_'11'__0_5_1_1: SDMC_0_5_1_1 - SDMC_1_2_0_0 = 0
Igual_Probes_'10',_'11'__0_5_2_1: SDMC_0_5_2_1 - SDMC_1_2_0_0 = 0
Igual_Probes_'10',_'11'__0_6_1_1: SDMC_0_6_1_1 - SDMC_1_2_0_0 = 0
Igual_Probes_'10',_'11'__0_6_2_1: SDMC_0_6_2_1 - SDMC_1_2_0_0 = 0
Igual_Probes_'10',_'11'__0_6_3_1: SDMC_0_6_3_1 - SDMC_1_2_0_0 = 0
Igual_Probes_'10',_'11'__0_6_4_1: SDMC_0_6_4_1 - SDMC_1_2_0_0 = 0
Igual_Probes_'10',_'11'__0_7_1_1: SDMC_0_7_1_1 - SDMC_1_2_0_0 = 0
Igual_Probes_'10',_'11'__0_7_2_1: SDMC_0_7_2_1 - SDMC_1_2_0_0 = 0
Igual_Probes_'10',_'11'__3_4_1_1: - SDMC_1_2_0_0 + SDMC_3_4_1_1 = 0
Igual_Probes_'10',_'11'__3_5_1_1: - SDMC_1_2_0_0 + SDMC_3_5_1_1 = 0
Igual_Probes_'10',_'11'__3_5_2_1: - SDMC_1_2_0_0 + SDMC_3_5_2_1 = 0
Igual_Probes_'10',_'11'__3_6_1_1: - SDMC_1_2_0_0 + SDMC_3_6_1_1 = 0
Igual_Probes_'10',_'11'__3_6_2_1: - SDMC_1_2_0_0 + SDMC_3_6_2_1 = 0
Igual_Probes_'10',_'11'__3_6_3_1: - SDMC_1_2_0_0 + SDMC_3_6_3_1 = 0
Igual_Probes_'10',_'11'__3_6_4_1: - SDMC_1_2_0_0 + SDMC_3_6_4_1 = 0
Igual_Probes_'10',_'11'__3_7_1_1: - SDMC_1_2_0_0 + SDMC_3_7_1_1 = 0
Igual_Probes_'10',_'11'__3_7_2_1: - SDMC_1_2_0_0 + SDMC_3_7_2_1 = 0
Igual_Probes_'10',_'12'__0_3_1_1: SDMC_0_3_1_1 - SDMC_1_3_0_0 = 0
Igual_Probes_'10',_'12'__2_3_1_1: - SDMC_1_3_0_0 + SDMC_2_3_1_1 = 0
Igual_Probes_'11',_'18',_'19',_'20'__0_6_12_1: SDMC_0_6_12_1 - SDMC_2_6_0_0
 = 0
Igual_Probes_'11',_'18',_'19',_'20'__0_6_4_2: SDMC_0_6_4_2 - SDMC_2_6_0_0 = 0
Igual_Probes_'11',_'18',_'19',_'20'__1_6_4_1: SDMC_1_6_4_1 - SDMC_2_6_0_0 = 0
Igual_Probes_'11',_'18',_'19',_'20'__3_6_12_1: - SDMC_2_6_0_0 + SDMC_3_6_12_1
 = 0
Igual_Probes_'11',_'18',_'19',_'20'__3_6_4_2: - SDMC_2_6_0_0 + SDMC_3_6_4_2
 = 0
Igual_Probes_'11',_'18',_'19'__0_5_2_2: SDMC_0_5_2_2 - SDMC_2_5_0_0 = 0
Igual_Probes_'11',_'18',_'19'__0_5_6_1: SDMC_0_5_6_1 - SDMC_2_5_0_0 = 0
Igual_Probes_'11',_'18',_'19'__0_6_11_1: SDMC_0_6_11_1 - SDMC_2_5_0_0 = 0
Igual_Probes_'11',_'18',_'19'__0_6_3_2: SDMC_0_6_3_2 - SDMC_2_5_0_0 = 0
Igual_Probes_'11',_'18',_'19'__1_5_2_1: SDMC_1_5_2_1 - SDMC_2_5_0_0 = 0
Igual_Probes_'11',_'18',_'19'__1_6_3_1: SDMC_1_6_3_1 - SDMC_2_5_0_0 = 0
Igual_Probes_'11',_'18',_'19'__3_5_2_2: - SDMC_2_5_0_0 + SDMC_3_5_2_2 = 0
Igual_Probes_'11',_'18',_'19'__3_5_6_1: - SDMC_2_5_0_0 + SDMC_3_5_6_1 = 0
Igual_Probes_'11',_'18',_'19'__3_6_11_1: - SDMC_2_5_0_0 + SDMC_3_6_11_1 = 0
Igual_Probes_'11',_'18',_'19'__3_6_3_2: - SDMC_2_5_0_0 + SDMC_3_6_3_2 = 0
Igual_Probes_'11',_'18',_'21'__0_7_2_2: SDMC_0_7_2_2 - SDMC_2_7_0_0 = 0
Igual_Probes_'11',_'18',_'21'__0_7_6_1: SDMC_0_7_6_1 - SDMC_2_7_0_0 = 0
Igual_Probes_'11',_'18',_'21'__1_7_2_1: SDMC_1_7_2_1 - SDMC_2_7_0_0 = 0
Igual_Probes_'11',_'18',_'21'__3_7_2_2: - SDMC_2_7_0_0 + SDMC_3_7_2_2 = 0
Igual_Probes_'11',_'18',_'21'__3_7_6_1: - SDMC_2_7_0_0 + SDMC_3_7_6_1 = 0
Igual_Probes_'11',_'18'__0_4_1_2: SDMC_0_4_1_2 - SDMC_2_4_0_0 = 0
Igual_Probes_'11',_'18'__0_4_3_1: SDMC_0_4_3_1 - SDMC_2_4_0_0 = 0
Igual_Probes_'11',_'18'__0_5_1_2: SDMC_0_5_1_2 - SDMC_2_4_0_0 = 0
Igual_Probes_'11',_'18'__0_5_5_1: SDMC_0_5_5_1 - SDMC_2_4_0_0 = 0
Igual_Probes_'11',_'18'__0_6_10_1: SDMC_0_6_10_1 - SDMC_2_4_0_0 = 0
Igual_Probes_'11',_'18'__0_6_1_2: SDMC_0_6_1_2 - SDMC_2_4_0_0 = 0
Igual_Probes_'11',_'18'__0_6_2_2: SDMC_0_6_2_2 - SDMC_2_4_0_0 = 0
Igual_Probes_'11',_'18'__0_6_9_1: SDMC_0_6_9_1 - SDMC_2_4_0_0 = 0
Igual_Probes_'11',_'18'__0_7_1_2: SDMC_0_7_1_2 - SDMC_2_4_0_0 = 0
Igual_Probes_'11',_'18'__0_7_5_1: SDMC_0_7_5_1 - SDMC_2_4_0_0 = 0
Igual_Probes_'11',_'18'__1_4_1_1: SDMC_1_4_1_1 - SDMC_2_4_0_0 = 0
Igual_Probes_'11',_'18'__1_5_1_1: SDMC_1_5_1_1 - SDMC_2_4_0_0 = 0
Igual_Probes_'11',_'18'__1_6_1_1: SDMC_1_6_1_1 - SDMC_2_4_0_0 = 0
Igual_Probes_'11',_'18'__1_6_2_1: SDMC_1_6_2_1 - SDMC_2_4_0_0 = 0
Igual_Probes_'11',_'18'__1_7_1_1: SDMC_1_7_1_1 - SDMC_2_4_0_0 = 0
Igual_Probes_'11',_'18'__3_4_1_2: - SDMC_2_4_0_0 + SDMC_3_4_1_2 = 0
Igual_Probes_'11',_'18'__3_4_3_1: - SDMC_2_4_0_0 + SDMC_3_4_3_1 = 0
Igual_Probes_'11',_'18'__3_5_1_2: - SDMC_2_4_0_0 + SDMC_3_5_1_2 = 0
Igual_Probes_'11',_'18'__3_5_5_1: - SDMC_2_4_0_0 + SDMC_3_5_5_1 = 0
Igual_Probes_'11',_'18'__3_6_10_1: - SDMC_2_4_0_0 + SDMC_3_6_10_1 = 0
Igual_Probes_'11',_'18'__3_6_1_2: - SDMC_2_4_0_0 + SDMC_3_6_1_2 = 0
Igual_Probes_'11',_'18'__3_6_2_2: - SDMC_2_4_0_0 + SDMC_3_6_2_2 = 0
Igual_Probes_'11',_'18'__3_6_9_1: - SDMC_2_4_0_0 + SDMC_3_6_9_1 = 0
Igual_Probes_'11',_'18'__3_7_1_2: - SDMC_2_4_0_0 + SDMC_3_7_1_2 = 0
Igual_Probes_'11',_'18'__3_7_5_1: - SDMC_2_4_0_0 + SDMC_3_7_5_1 = 0
Igual_Probes_'18',_'19',_'20'__0_6_10_2: SDMC_0_6_10_2 - SDMC_4_6_0_0 = 0
Igual_Probes_'18',_'19',_'20'__0_6_14_1: SDMC_0_6_14_1 - SDMC_4_6_0_0 = 0
Igual_Probes_'18',_'19',_'20'__0_6_2_3: SDMC_0_6_2_3 - SDMC_4_6_0_0 = 0
Igual_Probes_'18',_'19',_'20'__0_6_6_2: SDMC_0_6_6_2 - SDMC_4_6_0_0 = 0
Igual_Probes_'18',_'19',_'20'__1_6_2_2: SDMC_1_6_2_2 - SDMC_4_6_0_0 = 0
Igual_Probes_'18',_'19',_'20'__1_6_6_1: SDMC_1_6_6_1 - SDMC_4_6_0_0 = 0
Igual_Probes_'18',_'19',_'20'__2_6_2_1: SDMC_2_6_2_1 - SDMC_4_6_0_0 = 0
Igual_Probes_'18',_'19',_'20'__3_6_10_2: SDMC_3_6_10_2 - SDMC_4_6_0_0 = 0
Igual_Probes_'18',_'19',_'20'__3_6_14_1: SDMC_3_6_14_1 - SDMC_4_6_0_0 = 0
Igual_Probes_'18',_'19',_'20'__3_6_2_3: SDMC_3_6_2_3 - SDMC_4_6_0_0 = 0
Igual_Probes_'18',_'19',_'20'__3_6_6_2: SDMC_3_6_6_2 - SDMC_4_6_0_0 = 0
Igual_Probes_'18',_'19'__0_5_1_3: SDMC_0_5_1_3 - SDMC_4_5_0_0 = 0
Igual_Probes_'18',_'19'__0_5_3_2: SDMC_0_5_3_2 - SDMC_4_5_0_0 = 0
Igual_Probes_'18',_'19'__0_5_5_2: SDMC_0_5_5_2 - SDMC_4_5_0_0 = 0
Igual_Probes_'18',_'19'__0_5_7_1: SDMC_0_5_7_1 - SDMC_4_5_0_0 = 0
Igual_Probes_'18',_'19'__0_6_13_1: SDMC_0_6_13_1 - SDMC_4_5_0_0 = 0
Igual_Probes_'18',_'19'__0_6_1_3: SDMC_0_6_1_3 - SDMC_4_5_0_0 = 0
Igual_Probes_'18',_'19'__0_6_5_2: SDMC_0_6_5_2 - SDMC_4_5_0_0 = 0
Igual_Probes_'18',_'19'__0_6_9_2: SDMC_0_6_9_2 - SDMC_4_5_0_0 = 0
Igual_Probes_'18',_'19'__1_5_1_2: SDMC_1_5_1_2 - SDMC_4_5_0_0 = 0
Igual_Probes_'18',_'19'__1_5_3_1: SDMC_1_5_3_1 - SDMC_4_5_0_0 = 0
Igual_Probes_'18',_'19'__1_6_1_2: SDMC_1_6_1_2 - SDMC_4_5_0_0 = 0
Igual_Probes_'18',_'19'__1_6_5_1: SDMC_1_6_5_1 - SDMC_4_5_0_0 = 0
Igual_Probes_'18',_'19'__2_5_1_1: SDMC_2_5_1_1 - SDMC_4_5_0_0 = 0
Igual_Probes_'18',_'19'__2_6_1_1: SDMC_2_6_1_1 - SDMC_4_5_0_0 = 0
Igual_Probes_'18',_'19'__3_5_1_3: SDMC_3_5_1_3 - SDMC_4_5_0_0 = 0
Igual_Probes_'18',_'19'__3_5_3_2: SDMC_3_5_3_2 - SDMC_4_5_0_0 = 0
Igual_Probes_'18',_'19'__3_5_5_2: SDMC_3_5_5_2 - SDMC_4_5_0_0 = 0
Igual_Probes_'18',_'19'__3_5_7_1: SDMC_3_5_7_1 - SDMC_4_5_0_0 = 0
Igual_Probes_'18',_'19'__3_6_13_1: SDMC_3_6_13_1 - SDMC_4_5_0_0 = 0
Igual_Probes_'18',_'19'__3_6_1_3: SDMC_3_6_1_3 - SDMC_4_5_0_0 = 0
Igual_Probes_'18',_'19'__3_6_5_2: SDMC_3_6_5_2 - SDMC_4_5_0_0 = 0
Igual_Probes_'18',_'19'__3_6_9_2: SDMC_3_6_9_2 - SDMC_4_5_0_0 = 0
Igual_Probes_'18',_'19'__6_7_1_1: - SDMC_4_5_0_0 + SDMC_6_7_1_1 = 0
Igual_Probes_'18',_'21'__0_7_1_3: SDMC_0_7_1_3 - SDMC_4_7_0_0 = 0
Igual_Probes_'18',_'21'__0_7_3_2: SDMC_0_7_3_2 - SDMC_4_7_0_0 = 0
Igual_Probes_'18',_'21'__0_7_5_2: SDMC_0_7_5_2 - SDMC_4_7_0_0 = 0
Igual_Probes_'18',_'21'__0_7_7_1: SDMC_0_7_7_1 - SDMC_4_7_0_0 = 0
Igual_Probes_'18',_'21'__1_7_1_2: SDMC_1_7_1_2 - SDMC_4_7_0_0 = 0
Igual_Probes_'18',_'21'__1_7_3_1: SDMC_1_7_3_1 - SDMC_4_7_0_0 = 0
Igual_Probes_'18',_'21'__2_7_1_1: SDMC_2_7_1_1 - SDMC_4_7_0_0 = 0
Igual_Probes_'18',_'21'__3_7_1_3: SDMC_3_7_1_3 - SDMC_4_7_0_0 = 0
Igual_Probes_'18',_'21'__3_7_3_2: SDMC_3_7_3_2 - SDMC_4_7_0_0 = 0
Igual_Probes_'18',_'21'__3_7_5_2: SDMC_3_7_5_2 - SDMC_4_7_0_0 = 0
Igual_Probes_'18',_'21'__3_7_7_1: SDMC_3_7_7_1 - SDMC_4_7_0_0 = 0
Igual_Probes_'18',_'21'__5_7_1_1: - SDMC_4_7_0_0 + SDMC_5_7_1_1 = 0
Igual_Probes_'18',_'21'__6_7_1_2: - SDMC_4_7_0_0 + SDMC_6_7_1_2 = 0
Igual_Probes_'18',_'21'__6_7_3_1: - SDMC_4_7_0_0 + SDMC_6_7_3_1 = 0
Igual_Probes_'19',_'18',_'21'__6_7_2_1: - SDMC_5_7_0_0 + SDMC_6_7_2_1 = 0
Igual_Probes_'19',_'20'__0_6_11_2: SDMC_0_6_11_2 - SDMC_5_6_0_0 = 0
Igual_Probes_'19',_'20'__0_6_13_2: SDMC_0_6_13_2 - SDMC_5_6_0_0 = 0
Igual_Probes_'19',_'20'__0_6_15_1: SDMC_0_6_15_1 - SDMC_5_6_0_0 = 0
Igual_Probes_'19',_'20'__0_6_1_4: SDMC_0_6_1_4 - SDMC_5_6_0_0 = 0
Igual_Probes_'19',_'20'__0_6_3_3: SDMC_0_6_3_3 - SDMC_5_6_0_0 = 0
Igual_Probes_'19',_'20'__0_6_5_3: SDMC_0_6_5_3 - SDMC_5_6_0_0 = 0
Igual_Probes_'19',_'20'__0_6_7_2: SDMC_0_6_7_2 - SDMC_5_6_0_0 = 0
Igual_Probes_'19',_'20'__0_6_9_3: SDMC_0_6_9_3 - SDMC_5_6_0_0 = 0
Igual_Probes_'19',_'20'__1_6_1_3: SDMC_1_6_1_3 - SDMC_5_6_0_0 = 0
Igual_Probes_'19',_'20'__1_6_3_2: SDMC_1_6_3_2 - SDMC_5_6_0_0 = 0
Igual_Probes_'19',_'20'__1_6_5_2: SDMC_1_6_5_2 - SDMC_5_6_0_0 = 0
Igual_Probes_'19',_'20'__1_6_7_1: SDMC_1_6_7_1 - SDMC_5_6_0_0 = 0
Igual_Probes_'19',_'20'__2_6_1_2: SDMC_2_6_1_2 - SDMC_5_6_0_0 = 0
Igual_Probes_'19',_'20'__2_6_3_1: SDMC_2_6_3_1 - SDMC_5_6_0_0 = 0
Igual_Probes_'19',_'20'__3_6_11_2: SDMC_3_6_11_2 - SDMC_5_6_0_0 = 0
Igual_Probes_'19',_'20'__3_6_13_2: SDMC_3_6_13_2 - SDMC_5_6_0_0 = 0
Igual_Probes_'19',_'20'__3_6_15_1: SDMC_3_6_15_1 - SDMC_5_6_0_0 = 0
Igual_Probes_'19',_'20'__3_6_1_4: SDMC_3_6_1_4 - SDMC_5_6_0_0 = 0
Igual_Probes_'19',_'20'__3_6_3_3: SDMC_3_6_3_3 - SDMC_5_6_0_0 = 0
Igual_Probes_'19',_'20'__3_6_5_3: SDMC_3_6_5_3 - SDMC_5_6_0_0 = 0
Igual_Probes_'19',_'20'__3_6_7_2: SDMC_3_6_7_2 - SDMC_5_6_0_0 = 0
Igual_Probes_'19',_'20'__3_6_9_3: SDMC_3_6_9_3 - SDMC_5_6_0_0 = 0
Igual_Probes_'19',_'20'__4_6_1_1: SDMC_4_6_1_1 - SDMC_5_6_0_0 = 0
Max_Probes_Router0: SDMC_0_1_0_0 + SDMC_0_2_0_0 + SDMC_0_3_0_0 + SDMC_0_4_0_0
 + SDMC_0_5_0_0 + SDMC_0_6_0_0 + SDMC_0_7_0_0 <= 1
Max_Probes_Router1: SDMC_1_0_0_0 + SDMC_1_2_0_0 + SDMC_1_3_0_0 + SDMC_1_4_0_0
 + SDMC_1_5_0_0 + SDMC_1_6_0_0 + SDMC_1_7_0_0 <= 3
Max_Probes_Router2: SDMC_2_0_0_0 + SDMC_2_1_0_0 + SDMC_2_3_0_0 + SDMC_2_4_0_0
 + SDMC_2_5_0_0 + SDMC_2_6_0_0 + SDMC_2_7_0_0 <= 2
Max_Probes_Router3: SDMC_3_0_0_0 + SDMC_3_1_0_0 + SDMC_3_2_0_0 + SDMC_3_4_0_0
 + SDMC_3_5_0_0 + SDMC_3_6_0_0 + SDMC_3_7_0_0 <= 1
Max_Probes_Router4: SDMC_4_0_0_0 + SDMC_4_1_0_0 + SDMC_4_2_0_0 + SDMC_4_3_0_0
 + SDMC_4_5_0_0 + SDMC_4_6_0_0 + SDMC_4_7_0_0 <= 3
Max_Probes_Router5: SDMC_5_0_0_0 + SDMC_5_1_0_0 + SDMC_5_2_0_0 + SDMC_5_3_0_0
 + SDMC_5_4_0_0 + SDMC_5_6_0_0 + SDMC_5_7_0_0 <= 2
Max_Probes_Router6: SDMC_6_0_0_0 + SDMC_6_1_0_0 + SDMC_6_2_0_0 + SDMC_6_3_0_0
 + SDMC_6_4_0_0 + SDMC_6_5_0_0 + SDMC_6_7_0_0 <= 1
Max_Probes_Router7: SDMC_7_0_0_0 + SDMC_7_1_0_0 + SDMC_7_2_0_0 + SDMC_7_3_0_0
 + SDMC_7_4_0_0 + SDMC_7_5_0_0 + SDMC_7_6_0_0 <= 1
Binaries
SDMC_0_1_0_0
SDMC_0_2_0_0
SDMC_0_2_1_1
SDMC_0_3_0_0
SDMC_0_3_1_1
SDMC_0_4_0_0
SDMC_0_4_1_1
SDMC_0_4_1_2
SDMC_0_4_2_1
SDMC_0_4_3_1
SDMC_0_5_0_0
SDMC_0_5_1_1
SDMC_0_5_1_2
SDMC_0_5_1_3
SDMC_0_5_2_1
SDMC_0_5_2_2
SDMC_0_5_3_1
SDMC_0_5_3_2
SDMC_0_5_4_1
SDMC_0_5_5_1
SDMC_0_5_5_2
SDMC_0_5_6_1
SDMC_0_5_7_1
SDMC_0_6_0_0
SDMC_0_6_10_1
SDMC_0_6_10_2
SDMC_0_6_11_1
SDMC_0_6_11_2
SDMC_0_6_12_1
SDMC_0_6_13_1
SDMC_0_6_13_2
SDMC_0_6_14_1
SDMC_0_6_15_1
SDMC_0_6_1_1
SDMC_0_6_1_2
SDMC_0_6_1_3
SDMC_0_6_1_4
SDMC_0_6_2_1
SDMC_0_6_2_2
SDMC_0_6_2_3
SDMC_0_6_3_1
SDMC_0_6_3_2
SDMC_0_6_3_3
SDMC_0_6_4_1
SDMC_0_6_4_2
SDMC_0_6_5_1
SDMC_0_6_5_2
SDMC_0_6_5_3
SDMC_0_6_6_1
SDMC_0_6_6_2
SDMC_0_6_7_1
SDMC_0_6_7_2
SDMC_0_6_8_1
SDMC_0_6_9_1
SDMC_0_6_9_2
SDMC_0_6_9_3
SDMC_0_7_0_0
SDMC_0_7_1_1
SDMC_0_7_1_2
SDMC_0_7_1_3
SDMC_0_7_2_1
SDMC_0_7_2_2
SDMC_0_7_3_1
SDMC_0_7_3_2
SDMC_0_7_4_1
SDMC_0_7_5_1
SDMC_0_7_5_2
SDMC_0_7_6_1
SDMC_0_7_7_1
SDMC_1_0_0_0
SDMC_1_2_0_0
SDMC_1_3_0_0
SDMC_1_4_0_0
SDMC_1_4_1_1
SDMC_1_5_0_0
SDMC_1_5_1_1
SDMC_1_5_1_2
SDMC_1_5_2_1
SDMC_1_5_3_1
SDMC_1_6_0_0
SDMC_1_6_1_1
SDMC_1_6_1_2
SDMC_1_6_1_3
SDMC_1_6_2_1
SDMC_1_6_2_2
SDMC_1_6_3_1
SDMC_1_6_3_2
SDMC_1_6_4_1
SDMC_1_6_5_1
SDMC_1_6_5_2
SDMC_1_6_6_1
SDMC_1_6_7_1
SDMC_1_7_0_0
SDMC_1_7_1_1
SDMC_1_7_1_2
SDMC_1_7_2_1
SDMC_1_7_3_1
SDMC_2_0_0_0
SDMC_2_1_0_0
SDMC_2_3_0_0
SDMC_2_3_1_1
SDMC_2_4_0_0
SDMC_2_5_0_0
SDMC_2_5_1_1
SDMC_2_6_0_0
SDMC_2_6_1_1
SDMC_2_6_1_2
SDMC_2_6_2_1
SDMC_2_6_3_1
SDMC_2_7_0_0
SDMC_2_7_1_1
SDMC_3_0_0_0
SDMC_3_1_0_0
SDMC_3_2_0_0
SDMC_3_4_0_0
SDMC_3_4_1_1
SDMC_3_4_1_2
SDMC_3_4_2_1
SDMC_3_4_3_1
SDMC_3_5_0_0
SDMC_3_5_1_1
SDMC_3_5_1_2
SDMC_3_5_1_3
SDMC_3_5_2_1
SDMC_3_5_2_2
SDMC_3_5_3_1
SDMC_3_5_3_2
SDMC_3_5_4_1
SDMC_3_5_5_1
SDMC_3_5_5_2
SDMC_3_5_6_1
SDMC_3_5_7_1
SDMC_3_6_0_0
SDMC_3_6_10_1
SDMC_3_6_10_2
SDMC_3_6_11_1
SDMC_3_6_11_2
SDMC_3_6_12_1
SDMC_3_6_13_1
SDMC_3_6_13_2
SDMC_3_6_14_1
SDMC_3_6_15_1
SDMC_3_6_1_1
SDMC_3_6_1_2
SDMC_3_6_1_3
SDMC_3_6_1_4
SDMC_3_6_2_1
SDMC_3_6_2_2
SDMC_3_6_2_3
SDMC_3_6_3_1
SDMC_3_6_3_2
SDMC_3_6_3_3
SDMC_3_6_4_1
SDMC_3_6_4_2
SDMC_3_6_5_1
SDMC_3_6_5_2
SDMC_3_6_5_3
SDMC_3_6_6_1
SDMC_3_6_6_2
SDMC_3_6_7_1
SDMC_3_6_7_2
SDMC_3_6_8_1
SDMC_3_6_9_1
SDMC_3_6_9_2
SDMC_3_6_9_3
SDMC_3_7_0_0
SDMC_3_7_1_1
SDMC_3_7_1_2
SDMC_3_7_1_3
SDMC_3_7_2_1
SDMC_3_7_2_2
SDMC_3_7_3_1
SDMC_3_7_3_2
SDMC_3_7_4_1
SDMC_3_7_5_1
SDMC_3_7_5_2
SDMC_3_7_6_1
SDMC_3_7_7_1
SDMC_4_0_0_0
SDMC_4_1_0_0
SDMC_4_2_0_0
SDMC_4_3_0_0
SDMC_4_5_0_0
SDMC_4_6_0_0
SDMC_4_6_1_1
SDMC_4_7_0_0
SDMC_5_0_0_0
SDMC_5_1_0_0
SDMC_5_2_0_0
SDMC_5_3_0_0
SDMC_5_4_0_0
SDMC_5_6_0_0
SDMC_5_7_0_0
SDMC_5_7_1_1
SDMC_6_0_0_0
SDMC_6_1_0_0
SDMC_6_2_0_0
SDMC_6_3_0_0
SDMC_6_4_0_0
SDMC_6_5_0_0
SDMC_6_7_0_0
SDMC_6_7_1_1
SDMC_6_7_1_2
SDMC_6_7_2_1
SDMC_6_7_3_1
SDMC_7_0_0_0
SDMC_7_1_0_0
SDMC_7_2_0_0
SDMC_7_3_0_0
SDMC_7_4_0_0
SDMC_7_5_0_0
SDMC_7_6_0_0
End
