exemplo_pequeno.result
SDMC_0_1_0_0 = 0.0
SDMC_0_1_1_0 = 0.0
SDMC_0_1_1_1 = 0.0
SDMC_0_1_1_2 = 0.0
SDMC_0_1_1_3 = 0.0
SDMC_0_1_2_0 = 0.0
SDMC_0_1_2_1 = 0.0
SDMC_0_1_2_2 = 0.0
SDMC_0_1_3_0 = 0.0
SDMC_0_1_3_1 = 0.0
SDMC_0_1_3_2 = 0.0
SDMC_0_1_4_0 = 0.0
SDMC_0_1_4_1 = 0.0
SDMC_0_1_5_0 = 0.0
SDMC_0_1_5_1 = 0.0
SDMC_0_1_5_2 = 0.0
SDMC_0_1_6_0 = 0.0
SDMC_0_1_6_1 = 0.0
SDMC_0_1_7_0 = 0.0
SDMC_0_1_7_1 = 0.0
SDMC_0_2_0_0 = 0.0
SDMC_0_2_1_0 = 0.0
SDMC_0_2_1_1 = 0.0
SDMC_0_2_1_2 = 0.0
SDMC_0_2_2_0 = 1.0
SDMC_0_2_2_1 = 0.0
SDMC_0_2_3_0 = 0.0
SDMC_0_2_3_1 = 0.0
SDMC_0_3_0_0 = 0.0
SDMC_0_3_1_0 = 0.0
SDMC_0_3_1_1 = 0.0
SDMC_0_4_0_0 = 0.0
SDMC_0_4_1_0 = 0.0
SDMC_0_4_1_1 = 0.0
SDMC_0_4_1_2 = 0.0
SDMC_0_4_1_3 = 0.0
SDMC_0_4_2_0 = 0.0
SDMC_0_4_2_1 = 0.0
SDMC_0_4_2_2 = 0.0
SDMC_0_4_3_0 = 0.0
SDMC_0_4_3_1 = 0.0
SDMC_0_4_3_2 = 0.0
SDMC_0_4_4_0 = 0.0
SDMC_0_4_4_1 = 0.0
SDMC_0_4_5_0 = 0.0
SDMC_0_4_5_1 = 0.0
SDMC_0_4_5_2 = 0.0
SDMC_0_4_6_0 = 0.0
SDMC_0_4_6_1 = 0.0
SDMC_0_4_7_0 = 0.0
SDMC_0_4_7_1 = 0.0
SDMC_0_5_0_0 = 0.0
SDMC_0_6_0_0 = 0.0
SDMC_0_6_1_0 = 1.0
SDMC_0_6_1_1 = 0.0
SDMC_0_7_0_0 = 0.0
SDMC_0_7_1_0 = 0.0
SDMC_0_7_1_1 = 0.0
SDMC_0_7_1_2 = 0.0
SDMC_0_7_2_0 = 0.0
SDMC_0_7_2_1 = 0.0
SDMC_0_7_3_0 = 0.0
SDMC_0_7_3_1 = 0.0
SDMC_1_0_0_0 = 0.0
SDMC_1_2_0_0 = 0.0
SDMC_1_3_0_0 = 0.0
SDMC_1_3_1_0 = 0.0
SDMC_1_3_1_1 = 0.0
SDMC_1_4_0_0 = 0.0
SDMC_1_4_1_0 = 0.0
SDMC_1_4_1_1 = 0.0
SDMC_1_5_0_0 = 0.0
SDMC_1_5_1_0 = 0.0
SDMC_1_5_1_1 = 0.0
SDMC_1_5_1_2 = 0.0
SDMC_1_5_2_0 = 0.0
SDMC_1_5_2_1 = 0.0
SDMC_1_5_3_0 = 0.0
SDMC_1_5_3_1 = 0.0
SDMC_1_6_0_0 = 0.0
SDMC_1_6_1_0 = 0.0
SDMC_1_6_1_1 = 0.0
SDMC_1_6_1_2 = 0.0
SDMC_1_6_1_3 = 0.0
SDMC_1_6_2_0 = 0.0
SDMC_1_6_2_1 = 0.0
SDMC_1_6_2_2 = 0.0
SDMC_1_6_3_0 = 0.0
SDMC_1_6_3_1 = 0.0
SDMC_1_6_3_2 = 0.0
SDMC_1_6_4_0 = 0.0
SDMC_1_6_4_1 = 0.0
SDMC_1_6_5_0 = 0.0
SDMC_1_6_5_1 = 0.0
SDMC_1_6_5_2 = 0.0
SDMC_1_6_6_0 = 0.0
SDMC_1_6_6_1 = 0.0
SDMC_1_6_7_0 = 0.0
SDMC_1_6_7_1 = 0.0
SDMC_1_7_0_0 = 0.0
SDMC_1_7_10_0 = 0.0
SDMC_1_7_10_1 = 0.0
SDMC_1_7_10_2 = 0.0
SDMC_1_7_11_0 = 0.0
SDMC_1_7_11_1 = 0.0
SDMC_1_7_11_2 = 0.0
SDMC_1_7_12_0 = 0.0
SDMC_1_7_12_1 = 0.0
SDMC_1_7_13_0 = 0.0
SDMC_1_7_13_1 = 0.0
SDMC_1_7_13_2 = 0.0
SDMC_1_7_14_0 = 0.0
SDMC_1_7_14_1 = 0.0
SDMC_1_7_15_0 = 0.0
SDMC_1_7_15_1 = 0.0
SDMC_1_7_1_0 = 0.0
SDMC_1_7_1_1 = 0.0
SDMC_1_7_1_2 = 0.0
SDMC_1_7_1_3 = 0.0
SDMC_1_7_1_4 = 0.0
SDMC_1_7_2_0 = 0.0
SDMC_1_7_2_1 = 0.0
SDMC_1_7_2_2 = 0.0
SDMC_1_7_2_3 = 0.0
SDMC_1_7_3_0 = 0.0
SDMC_1_7_3_1 = 0.0
SDMC_1_7_3_2 = 0.0
SDMC_1_7_3_3 = 0.0
SDMC_1_7_4_0 = 0.0
SDMC_1_7_4_1 = 0.0
SDMC_1_7_4_2 = 0.0
SDMC_1_7_5_0 = 0.0
SDMC_1_7_5_1 = 0.0
SDMC_1_7_5_2 = 0.0
SDMC_1_7_5_3 = 0.0
SDMC_1_7_6_0 = 0.0
SDMC_1_7_6_1 = 0.0
SDMC_1_7_6_2 = 0.0
SDMC_1_7_7_0 = 0.0
SDMC_1_7_7_1 = 0.0
SDMC_1_7_7_2 = 0.0
SDMC_1_7_8_0 = 0.0
SDMC_1_7_8_1 = 0.0
SDMC_1_7_9_0 = 0.0
SDMC_1_7_9_1 = 0.0
SDMC_1_7_9_2 = 0.0
SDMC_1_7_9_3 = 0.0
SDMC_2_0_0_0 = 0.0
SDMC_2_1_0_0 = 0.0
SDMC_2_3_0_0 = 0.0
SDMC_2_4_0_0 = 0.0
SDMC_2_5_0_0 = 0.0
SDMC_2_5_1_0 = 1.0
SDMC_2_5_1_1 = 0.0
SDMC_2_6_0_0 = 0.0
SDMC_2_6_1_0 = 1.0
SDMC_2_6_1_1 = 0.0
SDMC_2_6_1_2 = 0.0
SDMC_2_6_2_0 = 1.0
SDMC_2_6_2_1 = 0.0
SDMC_2_6_3_0 = 0.0
SDMC_2_6_3_1 = 0.0
SDMC_2_7_0_0 = 0.0
SDMC_2_7_1_0 = 0.0
SDMC_2_7_1_1 = 0.0
SDMC_2_7_1_2 = 0.0
SDMC_2_7_1_3 = 0.0
SDMC_2_7_2_0 = 0.0
SDMC_2_7_2_1 = 0.0
SDMC_2_7_2_2 = 0.0
SDMC_2_7_3_0 = 0.0
SDMC_2_7_3_1 = 0.0
SDMC_2_7_3_2 = 0.0
SDMC_2_7_4_0 = 0.0
SDMC_2_7_4_1 = 0.0
SDMC_2_7_5_0 = 0.0
SDMC_2_7_5_1 = 0.0
SDMC_2_7_5_2 = 0.0
SDMC_2_7_6_0 = 0.0
SDMC_2_7_6_1 = 0.0
SDMC_2_7_7_0 = 0.0
SDMC_2_7_7_1 = 0.0
SDMC_3_0_0_0 = 0.0
SDMC_3_1_0_0 = 0.0
SDMC_3_2_0_0 = 0.0
SDMC_3_4_0_0 = 0.0
SDMC_3_4_1_0 = 0.0
SDMC_3_4_1_1 = 0.0
SDMC_3_5_0_0 = 0.0
SDMC_3_6_0_0 = 0.0
SDMC_3_6_1_0 = 0.0
SDMC_3_6_1_1 = 0.0
SDMC_3_7_0_0 = 0.0
SDMC_3_7_1_0 = 0.0
SDMC_3_7_1_1 = 0.0
SDMC_3_7_1_2 = 0.0
SDMC_3_7_2_0 = 0.0
SDMC_3_7_2_1 = 0.0
SDMC_3_7_3_0 = 0.0
SDMC_3_7_3_1 = 0.0
SDMC_4_0_0_0 = 0.0
SDMC_4_1_0_0 = 0.0
SDMC_4_2_0_0 = 0.0
SDMC_4_3_0_0 = 0.0
SDMC_4_5_0_0 = 0.0
SDMC_4_5_1_0 = 0.0
SDMC_4_5_1_1 = 0.0
SDMC_4_5_1_2 = 0.0
SDMC_4_5_2_0 = 0.0
SDMC_4_5_2_1 = 0.0
SDMC_4_5_3_0 = 0.0
SDMC_4_5_3_1 = 0.0
SDMC_4_6_0_0 = 0.0
SDMC_4_6_1_0 = 0.0
SDMC_4_6_1_1 = 0.0
SDMC_4_6_1_2 = 0.0
SDMC_4_6_1_3 = 0.0
SDMC_4_6_2_0 = 0.0
SDMC_4_6_2_1 = 0.0
SDMC_4_6_2_2 = 0.0
SDMC_4_6_3_0 = 0.0
SDMC_4_6_3_1 = 0.0
SDMC_4_6_3_2 = 0.0
SDMC_4_6_4_0 = 0.0
SDMC_4_6_4_1 = 0.0
SDMC_4_6_5_0 = 0.0
SDMC_4_6_5_1 = 0.0
SDMC_4_6_5_2 = 0.0
SDMC_4_6_6_0 = 0.0
SDMC_4_6_6_1 = 0.0
SDMC_4_6_7_0 = 0.0
SDMC_4_6_7_1 = 0.0
SDMC_4_7_0_0 = 0.0
SDMC_4_7_10_0 = 0.0
SDMC_4_7_10_1 = 0.0
SDMC_4_7_10_2 = 0.0
SDMC_4_7_11_0 = 0.0
SDMC_4_7_11_1 = 0.0
SDMC_4_7_11_2 = 0.0
SDMC_4_7_12_0 = 0.0
SDMC_4_7_12_1 = 0.0
SDMC_4_7_13_0 = 0.0
SDMC_4_7_13_1 = 0.0
SDMC_4_7_13_2 = 0.0
SDMC_4_7_14_0 = 0.0
SDMC_4_7_14_1 = 0.0
SDMC_4_7_15_0 = 0.0
SDMC_4_7_15_1 = 0.0
SDMC_4_7_1_0 = 0.0
SDMC_4_7_1_1 = 0.0
SDMC_4_7_1_2 = 0.0
SDMC_4_7_1_3 = 0.0
SDMC_4_7_1_4 = 0.0
SDMC_4_7_2_0 = 0.0
SDMC_4_7_2_1 = 0.0
SDMC_4_7_2_2 = 0.0
SDMC_4_7_2_3 = 0.0
SDMC_4_7_3_0 = 0.0
SDMC_4_7_3_1 = 0.0
SDMC_4_7_3_2 = 0.0
SDMC_4_7_3_3 = 0.0
SDMC_4_7_4_0 = 0.0
SDMC_4_7_4_1 = 0.0
SDMC_4_7_4_2 = 0.0
SDMC_4_7_5_0 = 0.0
SDMC_4_7_5_1 = 0.0
SDMC_4_7_5_2 = 0.0
SDMC_4_7_5_3 = 0.0
SDMC_4_7_6_0 = 0.0
SDMC_4_7_6_1 = 0.0
SDMC_4_7_6_2 = 0.0
SDMC_4_7_7_0 = 0.0
SDMC_4_7_7_1 = 0.0
SDMC_4_7_7_2 = 0.0
SDMC_4_7_8_0 = 0.0
SDMC_4_7_8_1 = 0.0
SDMC_4_7_9_0 = 0.0
SDMC_4_7_9_1 = 0.0
SDMC_4_7_9_2 = 0.0
SDMC_4_7_9_3 = 0.0
SDMC_5_0_0_0 = 0.0
SDMC_5_1_0_0 = 0.0
SDMC_5_2_0_0 = 0.0
SDMC_5_3_0_0 = 0.0
SDMC_5_4_0_0 = 0.0
SDMC_5_6_0_0 = 0.0
SDMC_5_7_0_0 = 0.0
SDMC_5_7_1_0 = 1.0
SDMC_5_7_1_1 = 0.0
SDMC_6_0_0_0 = 0.0
SDMC_6_1_0_0 = 0.0
SDMC_6_2_0_0 = 0.0
SDMC_6_3_0_0 = 0.0
SDMC_6_4_0_0 = 0.0
SDMC_6_5_0_0 = 0.0
SDMC_6_7_0_0 = 0.0
SDMC_7_0_0_0 = 0.0
SDMC_7_1_0_0 = 0.0
SDMC_7_2_0_0 = 0.0
SDMC_7_3_0_0 = 0.0
SDMC_7_4_0_0 = 0.0
SDMC_7_5_0_0 = 0.0
SDMC_7_6_0_0 = 0.0
